1407133942178082605506,12,1,2,07,13,1,2,02,15,1,2,08,1,1,2,06,6,1,2,012,2,1,2,012,7,1,2,05,8,1,2,03,14,1,2,011,10,1,2,01,1,1,2,012,15,1,2,04,12,1,2,02,11,1,2,012,13,1,2,08,14,1,2,011,2,1,2,05,2,1,2,03,2,1,2,04,9,1,2,07,7,1,2,012,1,1,2,01,10,1,2,02,10,1,2,06,12,1,2,03,9,1,2,011,3,1,2,01,2,1,2,07,4,1,2,07,5,1,2,015,1,1,2,02,5,1,2,08,8,1,2,015,11,1,2,07,2,1,2,03,6,1,2,02,15,1,2,014,10,1,2,09,5,1,2,02,6,1,2,09,11,1,2,011,11,1,2,08,11,1,2,012,8,1,2,010,10,1,2,015,11,1,2,014,11,1,2,06,9,1,2,07,15,1,2,010,10,1,2,0